NAME : pr107.102641.tour
COMMENT : Cost = 21308_102641
COMMENT : Found by LKH [Keld Helsgaun] Thu Nov 16 17:46:25 2017
TYPE : TOUR
DIMENSION : 111
TOUR_SECTION
1
3
8
11
10
9
14
17
18
20
23
24
26
29
30
32
35
36
38
41
42
44
47
48
50
53
54
51
52
49
46
45
43
40
39
37
34
33
31
28
27
25
22
21
19
16
15
13
12
4
109
60
84
86
87
85
88
90
93
92
94
58
91
89
59
5
111
104
105
107
106
55
6
108
79
81
82
83
80
78
75
77
76
61
74
62
73
70
71
72
69
68
65
67
66
64
63
2
110
57
96
97
95
98
100
103
102
99
101
56
7
-1
EOF
